db/data/2453809418338267123557188193045724054.z3.out
sat
-------------------
17.412917066
